# |V| = 9
# |E| = 28
# Prob((i,j)) = 0.600000

set V:=
1
2
3
4
5
6
7
8
9
;
param: E: w :=
1 2 1
1 3 48
1 4 28
1 5 80
1 6 34
1 7 54
1 8 52
1 9 57
2 3 65
2 4 23
2 5 29
2 6 38
2 9 17
3 4 11
3 5 38
3 7 71
3 8 26
3 9 72
4 6 68
4 7 9
4 9 83
5 7 43
5 9 74
6 7 23
6 8 25
7 8 28
7 9 43
8 9 91
;
